; benchmark generated from python API
(set-info :status unknown)
(declare-fun x_epoch () Int)
(declare-fun x_plus_epoch () Int)
(declare-fun x_plus_month () Int)
(declare-fun x_plus_year () Int)
(declare-fun x_plus_day () Int)
(assert
 (>= x_epoch (- 36525)))
(assert
 (<= x_epoch 36523))
(assert
 (= x_epoch 7304))
(assert
 (>= x_plus_epoch (- 36525)))
(assert
 (<= x_plus_epoch 36523))
(assert
 (let (($x1122 (= x_plus_month 11)))
 (let (($x788 (= x_plus_month 9)))
 (let (($x986 (= x_plus_month 6)))
 (let (($x3271 (= x_plus_month 4)))
 (let ((?x1273 (ite (or $x3271 $x986 $x788 $x1122) 30 31)))
 (let (($x3151 (= (mod x_plus_year 400) 0)))
 (let (($x955 (= (mod x_plus_year 4) 0)))
 (let (($x729 (or (and $x955 (and (distinct (mod x_plus_year 100) 0) true)) $x3151)))
 (let (($x533 (= x_plus_month 2)))
 (let (($x765 (>= x_plus_day 1)))
 (let (($x761 (<= x_plus_month 12)))
 (let (($x942 (>= x_plus_month 1)))
 (let (($x2302 (<= x_plus_year 2100)))
 (let (($x589 (>= x_plus_year 1900)))
 (and $x589 $x2302 $x942 $x761 $x765 (<= x_plus_day (ite $x533 (ite $x729 29 28) ?x1273))))))))))))))))))
(assert
 (let (($x3151 (= (mod x_plus_year 400) 0)))
 (let (($x955 (= (mod x_plus_year 4) 0)))
 (let (($x729 (or (and $x955 (and (distinct (mod x_plus_year 100) 0) true)) $x3151)))
 (let ((?x2176 (ite (= 2 x_plus_month) (ite $x729 31 31) (ite (= 1 x_plus_month) (ite $x729 0 0) 0))))
 (let ((?x639 (ite (= 4 x_plus_month) (ite $x729 91 90) (ite (= 3 x_plus_month) (ite $x729 60 59) ?x2176))))
 (let ((?x3210 (ite (= 6 x_plus_month) (ite $x729 152 151) (ite (= 5 x_plus_month) (ite $x729 121 120) ?x639))))
 (let ((?x736 (ite (= 8 x_plus_month) (ite $x729 213 212) (ite (= 7 x_plus_month) (ite $x729 182 181) ?x3210))))
 (let ((?x899 (ite (= 10 x_plus_month) (ite $x729 274 273) (ite (= 9 x_plus_month) (ite $x729 244 243) ?x736))))
 (let ((?x1206 (ite (= 12 x_plus_month) (ite $x729 335 334) (ite (= 11 x_plus_month) (ite $x729 305 304) ?x899))))
 (let ((?x627 (+ (* 365 (- x_plus_year 1)) (div (- x_plus_year 1) 4))))
 (let ((?x3131 (+ (- ?x627 (div (- x_plus_year 1) 100)) (div (- x_plus_year 1) 400))))
 (= x_plus_epoch (- (+ (+ ?x3131 ?x1206) (- x_plus_day 1)) 730179))))))))))))))
(assert
 (let ((?x717 (+ x_epoch 730179)))
 (let ((?x1000 (mod ?x717 146097)))
 (let ((?x537 (div ?x1000 36524)))
 (let ((?x858 (ite (<= 4 ?x537) 3 ?x537)))
 (let ((?x1175 (- ?x1000 (* ?x858 36524))))
 (let ((?x428 (mod ?x1175 1461)))
 (let ((?x799 (div ?x428 365)))
 (let ((?x496 (ite (<= 4 ?x799) 3 ?x799)))
 (let ((?x837 (+ (+ (* (div ?x717 146097) 400) (* ?x858 100)) (* (div ?x1175 1461) 4))))
 (let ((?x814 (+ (+ ?x837 ?x496) 1)))
 (let (($x1016 (or (and (= (mod ?x814 4) 0) (and (distinct (mod ?x814 100) 0) true)) (= (mod ?x814 400) 0))))
 (let ((?x2625 (- ?x428 (* ?x496 365))))
 (let ((?x756 (ite $x1016 31 31)))
 (let (($x1533 (>= ?x2625 ?x756)))
 (let ((?x1105 (ite $x1533 (+ (- ?x2625 ?x756) 1) (+ (- ?x2625 (ite $x1016 0 0)) 1))))
 (let ((?x804 (ite $x1016 60 59)))
 (let (($x1871 (>= ?x2625 ?x804)))
 (let ((?x482 (ite $x1016 91 90)))
 (let (($x472 (>= ?x2625 ?x482)))
 (let ((?x777 (ite $x472 (+ (- ?x2625 ?x482) 1) (ite $x1871 (+ (- ?x2625 ?x804) 1) ?x1105))))
 (let ((?x566 (ite $x1016 121 120)))
 (let (($x604 (>= ?x2625 ?x566)))
 (let ((?x720 (ite $x1016 152 151)))
 (let (($x555 (>= ?x2625 ?x720)))
 (let ((?x2917 (ite $x555 (+ (- ?x2625 ?x720) 1) (ite $x604 (+ (- ?x2625 ?x566) 1) ?x777))))
 (let ((?x947 (ite $x1016 182 181)))
 (let (($x835 (>= ?x2625 ?x947)))
 (let ((?x608 (ite $x1016 213 212)))
 (let (($x438 (>= ?x2625 ?x608)))
 (let ((?x630 (ite $x438 (+ (- ?x2625 ?x608) 1) (ite $x835 (+ (- ?x2625 ?x947) 1) ?x2917))))
 (let ((?x684 (ite $x1016 244 243)))
 (let (($x864 (>= ?x2625 ?x684)))
 (let ((?x859 (ite $x1016 274 273)))
 (let (($x906 (>= ?x2625 ?x859)))
 (let ((?x1181 (ite $x906 (+ (- ?x2625 ?x859) 1) (ite $x864 (+ (- ?x2625 ?x684) 1) ?x630))))
 (let ((?x633 (ite $x1016 305 304)))
 (let (($x775 (>= ?x2625 ?x633)))
 (let ((?x1049 (ite $x1016 335 334)))
 (let (($x1085 (>= ?x2625 ?x1049)))
 (let ((?x3494 (ite $x1085 (+ (- ?x2625 ?x1049) 1) (ite $x775 (+ (- ?x2625 ?x633) 1) ?x1181))))
 (let ((?x1118 (+ (* 1 12) 0)))
 (let ((?x679 (ite $x604 5 (ite $x472 4 (ite $x1871 3 (ite $x1533 2 1))))))
 (let ((?x718 (ite $x864 9 (ite $x438 8 (ite $x835 7 (ite $x555 6 ?x679))))))
 (let ((?x696 (ite $x1085 12 (ite $x775 11 (ite $x906 10 ?x718)))))
 (let ((?x506 (+ ?x696 ?x1118)))
 (let ((?x760 (- ?x506 1)))
 (let ((?x702 (+ (mod ?x760 12) 1)))
 (let ((?x1102 (ite (or (= ?x702 4) (= ?x702 6) (= ?x702 9) (= ?x702 11)) 30 31)))
 (let (($x964 (and (= (mod (+ ?x814 (+ 0 (div ?x760 12))) 4) 0) (and (distinct (mod (+ ?x814 (+ 0 (div ?x760 12))) 100) 0) true))))
 (let (($x3529 (or $x964 (= (mod (+ ?x814 (+ 0 (div ?x760 12))) 400) 0))))
 (let ((?x1635 (ite (= ?x702 2) (ite $x3529 29 28) ?x1102)))
 (let ((?x2387 (ite (> 1 ?x3494) 1 (ite (> ?x3494 ?x1635) ?x1635 ?x3494))))
 (let ((?x431 (ite (> 1 ?x2387) 1 (ite (> ?x2387 ?x1635) ?x1635 ?x2387))))
 (let ((?x606 (ite (= 2 ?x702) (ite $x3529 31 31) (ite (= 1 ?x702) (ite $x3529 0 0) 0))))
 (let ((?x974 (ite (= 4 ?x702) (ite $x3529 91 90) (ite (= 3 ?x702) (ite $x3529 60 59) ?x606))))
 (let ((?x1725 (ite (= 6 ?x702) (ite $x3529 152 151) (ite (= 5 ?x702) (ite $x3529 121 120) ?x974))))
 (let ((?x747 (ite (= 8 ?x702) (ite $x3529 213 212) (ite (= 7 ?x702) (ite $x3529 182 181) ?x1725))))
 (let ((?x3022 (ite (= 10 ?x702) (ite $x3529 274 273) (ite (= 9 ?x702) (ite $x3529 244 243) ?x747))))
 (let ((?x3134 (ite (= 12 ?x702) (ite $x3529 335 334) (ite (= 11 ?x702) (ite $x3529 305 304) ?x3022))))
 (let ((?x516 (+ (* 365 (- (+ ?x814 (+ 0 (div ?x760 12))) 1)) (div (- (+ ?x814 (+ 0 (div ?x760 12))) 1) 4))))
 (let ((?x629 (+ (- ?x516 (div (- (+ ?x814 (+ 0 (div ?x760 12))) 1) 100)) (div (- (+ ?x814 (+ 0 (div ?x760 12))) 1) 400))))
 (let ((?x2954 (+ (+ (- (+ (+ ?x629 ?x3134) (- ?x431 1)) 730179) 0) 730179)))
 (let ((?x1026 (mod ?x2954 146097)))
 (let ((?x929 (div ?x1026 36524)))
 (let ((?x1717 (ite (<= 4 ?x929) 3 ?x929)))
 (let ((?x1147 (- ?x1026 (* ?x1717 36524))))
 (let ((?x415 (mod ?x1147 1461)))
 (let ((?x1083 (div ?x415 365)))
 (let ((?x2490 (ite (<= 4 ?x1083) 3 ?x1083)))
 (let ((?x3026 (+ (+ (* (div ?x2954 146097) 400) (* ?x1717 100)) (* (div ?x1147 1461) 4))))
 (let ((?x491 (+ (+ ?x3026 ?x2490) 1)))
 (let ((?x800 (+ 0 (div ?x760 12))))
 (let ((?x843 (+ ?x814 ?x800)))
 (let (($x573 (= 0 0)))
 (let ((?x1010 (ite $x573 ?x843 ?x491)))
 (= x_plus_year ?x1010)))))))))))))))))))))))))))))))))))))))))))))))))))))))))))))))))))))))))))))
(assert
 (let ((?x717 (+ x_epoch 730179)))
 (let ((?x1000 (mod ?x717 146097)))
 (let ((?x537 (div ?x1000 36524)))
 (let ((?x858 (ite (<= 4 ?x537) 3 ?x537)))
 (let ((?x1175 (- ?x1000 (* ?x858 36524))))
 (let ((?x428 (mod ?x1175 1461)))
 (let ((?x799 (div ?x428 365)))
 (let ((?x496 (ite (<= 4 ?x799) 3 ?x799)))
 (let ((?x837 (+ (+ (* (div ?x717 146097) 400) (* ?x858 100)) (* (div ?x1175 1461) 4))))
 (let ((?x814 (+ (+ ?x837 ?x496) 1)))
 (let (($x1016 (or (and (= (mod ?x814 4) 0) (and (distinct (mod ?x814 100) 0) true)) (= (mod ?x814 400) 0))))
 (let ((?x2625 (- ?x428 (* ?x496 365))))
 (let ((?x756 (ite $x1016 31 31)))
 (let (($x1533 (>= ?x2625 ?x756)))
 (let ((?x1105 (ite $x1533 (+ (- ?x2625 ?x756) 1) (+ (- ?x2625 (ite $x1016 0 0)) 1))))
 (let ((?x804 (ite $x1016 60 59)))
 (let (($x1871 (>= ?x2625 ?x804)))
 (let ((?x482 (ite $x1016 91 90)))
 (let (($x472 (>= ?x2625 ?x482)))
 (let ((?x777 (ite $x472 (+ (- ?x2625 ?x482) 1) (ite $x1871 (+ (- ?x2625 ?x804) 1) ?x1105))))
 (let ((?x566 (ite $x1016 121 120)))
 (let (($x604 (>= ?x2625 ?x566)))
 (let ((?x720 (ite $x1016 152 151)))
 (let (($x555 (>= ?x2625 ?x720)))
 (let ((?x2917 (ite $x555 (+ (- ?x2625 ?x720) 1) (ite $x604 (+ (- ?x2625 ?x566) 1) ?x777))))
 (let ((?x947 (ite $x1016 182 181)))
 (let (($x835 (>= ?x2625 ?x947)))
 (let ((?x608 (ite $x1016 213 212)))
 (let (($x438 (>= ?x2625 ?x608)))
 (let ((?x630 (ite $x438 (+ (- ?x2625 ?x608) 1) (ite $x835 (+ (- ?x2625 ?x947) 1) ?x2917))))
 (let ((?x684 (ite $x1016 244 243)))
 (let (($x864 (>= ?x2625 ?x684)))
 (let ((?x859 (ite $x1016 274 273)))
 (let (($x906 (>= ?x2625 ?x859)))
 (let ((?x1181 (ite $x906 (+ (- ?x2625 ?x859) 1) (ite $x864 (+ (- ?x2625 ?x684) 1) ?x630))))
 (let ((?x633 (ite $x1016 305 304)))
 (let (($x775 (>= ?x2625 ?x633)))
 (let ((?x1049 (ite $x1016 335 334)))
 (let (($x1085 (>= ?x2625 ?x1049)))
 (let ((?x3494 (ite $x1085 (+ (- ?x2625 ?x1049) 1) (ite $x775 (+ (- ?x2625 ?x633) 1) ?x1181))))
 (let ((?x1118 (+ (* 1 12) 0)))
 (let ((?x679 (ite $x604 5 (ite $x472 4 (ite $x1871 3 (ite $x1533 2 1))))))
 (let ((?x718 (ite $x864 9 (ite $x438 8 (ite $x835 7 (ite $x555 6 ?x679))))))
 (let ((?x696 (ite $x1085 12 (ite $x775 11 (ite $x906 10 ?x718)))))
 (let ((?x506 (+ ?x696 ?x1118)))
 (let ((?x760 (- ?x506 1)))
 (let ((?x702 (+ (mod ?x760 12) 1)))
 (let ((?x1102 (ite (or (= ?x702 4) (= ?x702 6) (= ?x702 9) (= ?x702 11)) 30 31)))
 (let (($x964 (and (= (mod (+ ?x814 (+ 0 (div ?x760 12))) 4) 0) (and (distinct (mod (+ ?x814 (+ 0 (div ?x760 12))) 100) 0) true))))
 (let (($x3529 (or $x964 (= (mod (+ ?x814 (+ 0 (div ?x760 12))) 400) 0))))
 (let ((?x1635 (ite (= ?x702 2) (ite $x3529 29 28) ?x1102)))
 (let ((?x2387 (ite (> 1 ?x3494) 1 (ite (> ?x3494 ?x1635) ?x1635 ?x3494))))
 (let ((?x431 (ite (> 1 ?x2387) 1 (ite (> ?x2387 ?x1635) ?x1635 ?x2387))))
 (let ((?x606 (ite (= 2 ?x702) (ite $x3529 31 31) (ite (= 1 ?x702) (ite $x3529 0 0) 0))))
 (let ((?x974 (ite (= 4 ?x702) (ite $x3529 91 90) (ite (= 3 ?x702) (ite $x3529 60 59) ?x606))))
 (let ((?x1725 (ite (= 6 ?x702) (ite $x3529 152 151) (ite (= 5 ?x702) (ite $x3529 121 120) ?x974))))
 (let ((?x747 (ite (= 8 ?x702) (ite $x3529 213 212) (ite (= 7 ?x702) (ite $x3529 182 181) ?x1725))))
 (let ((?x3022 (ite (= 10 ?x702) (ite $x3529 274 273) (ite (= 9 ?x702) (ite $x3529 244 243) ?x747))))
 (let ((?x3134 (ite (= 12 ?x702) (ite $x3529 335 334) (ite (= 11 ?x702) (ite $x3529 305 304) ?x3022))))
 (let ((?x516 (+ (* 365 (- (+ ?x814 (+ 0 (div ?x760 12))) 1)) (div (- (+ ?x814 (+ 0 (div ?x760 12))) 1) 4))))
 (let ((?x629 (+ (- ?x516 (div (- (+ ?x814 (+ 0 (div ?x760 12))) 1) 100)) (div (- (+ ?x814 (+ 0 (div ?x760 12))) 1) 400))))
 (let ((?x2954 (+ (+ (- (+ (+ ?x629 ?x3134) (- ?x431 1)) 730179) 0) 730179)))
 (let ((?x1026 (mod ?x2954 146097)))
 (let ((?x929 (div ?x1026 36524)))
 (let ((?x1717 (ite (<= 4 ?x929) 3 ?x929)))
 (let ((?x1147 (- ?x1026 (* ?x1717 36524))))
 (let ((?x415 (mod ?x1147 1461)))
 (let ((?x1083 (div ?x415 365)))
 (let ((?x2490 (ite (<= 4 ?x1083) 3 ?x1083)))
 (let ((?x3026 (+ (+ (* (div ?x2954 146097) 400) (* ?x1717 100)) (* (div ?x1147 1461) 4))))
 (let ((?x491 (+ (+ ?x3026 ?x2490) 1)))
 (let (($x954 (or (and (= (mod ?x491 4) 0) (and (distinct (mod ?x491 100) 0) true)) (= (mod ?x491 400) 0))))
 (let ((?x489 (ite $x954 31 31)))
 (let ((?x2125 (- ?x415 (* ?x2490 365))))
 (let (($x888 (>= ?x2125 ?x489)))
 (let ((?x1019 (ite $x954 60 59)))
 (let (($x1103 (>= ?x2125 ?x1019)))
 (let ((?x3057 (ite $x954 91 90)))
 (let (($x796 (>= ?x2125 ?x3057)))
 (let ((?x2076 (ite $x954 121 120)))
 (let (($x2891 (>= ?x2125 ?x2076)))
 (let ((?x749 (ite $x2891 5 (ite $x796 4 (ite $x1103 3 (ite $x888 2 1))))))
 (let ((?x643 (ite $x954 152 151)))
 (let (($x825 (>= ?x2125 ?x643)))
 (let ((?x2987 (ite $x954 182 181)))
 (let (($x1003 (>= ?x2125 ?x2987)))
 (let ((?x697 (ite $x954 213 212)))
 (let (($x631 (>= ?x2125 ?x697)))
 (let ((?x806 (ite $x954 244 243)))
 (let (($x1293 (>= ?x2125 ?x806)))
 (let ((?x562 (ite $x1293 9 (ite $x631 8 (ite $x1003 7 (ite $x825 6 ?x749))))))
 (let ((?x3071 (ite $x954 274 273)))
 (let (($x951 (>= ?x2125 ?x3071)))
 (let ((?x1067 (ite $x954 305 304)))
 (let (($x1274 (>= ?x2125 ?x1067)))
 (let ((?x706 (ite $x954 335 334)))
 (let (($x3904 (>= ?x2125 ?x706)))
 (let (($x573 (= 0 0)))
 (let ((?x1401 (ite $x573 ?x702 (ite $x3904 12 (ite $x1274 11 (ite $x951 10 ?x562))))))
 (= x_plus_month ?x1401)))))))))))))))))))))))))))))))))))))))))))))))))))))))))))))))))))))))))))))))))))))))))))))))))))))
(assert
 (let ((?x717 (+ x_epoch 730179)))
 (let ((?x1000 (mod ?x717 146097)))
 (let ((?x537 (div ?x1000 36524)))
 (let ((?x858 (ite (<= 4 ?x537) 3 ?x537)))
 (let ((?x1175 (- ?x1000 (* ?x858 36524))))
 (let ((?x428 (mod ?x1175 1461)))
 (let ((?x799 (div ?x428 365)))
 (let ((?x496 (ite (<= 4 ?x799) 3 ?x799)))
 (let ((?x837 (+ (+ (* (div ?x717 146097) 400) (* ?x858 100)) (* (div ?x1175 1461) 4))))
 (let ((?x814 (+ (+ ?x837 ?x496) 1)))
 (let (($x1016 (or (and (= (mod ?x814 4) 0) (and (distinct (mod ?x814 100) 0) true)) (= (mod ?x814 400) 0))))
 (let ((?x2625 (- ?x428 (* ?x496 365))))
 (let ((?x756 (ite $x1016 31 31)))
 (let (($x1533 (>= ?x2625 ?x756)))
 (let ((?x1105 (ite $x1533 (+ (- ?x2625 ?x756) 1) (+ (- ?x2625 (ite $x1016 0 0)) 1))))
 (let ((?x804 (ite $x1016 60 59)))
 (let (($x1871 (>= ?x2625 ?x804)))
 (let ((?x482 (ite $x1016 91 90)))
 (let (($x472 (>= ?x2625 ?x482)))
 (let ((?x777 (ite $x472 (+ (- ?x2625 ?x482) 1) (ite $x1871 (+ (- ?x2625 ?x804) 1) ?x1105))))
 (let ((?x566 (ite $x1016 121 120)))
 (let (($x604 (>= ?x2625 ?x566)))
 (let ((?x720 (ite $x1016 152 151)))
 (let (($x555 (>= ?x2625 ?x720)))
 (let ((?x2917 (ite $x555 (+ (- ?x2625 ?x720) 1) (ite $x604 (+ (- ?x2625 ?x566) 1) ?x777))))
 (let ((?x947 (ite $x1016 182 181)))
 (let (($x835 (>= ?x2625 ?x947)))
 (let ((?x608 (ite $x1016 213 212)))
 (let (($x438 (>= ?x2625 ?x608)))
 (let ((?x630 (ite $x438 (+ (- ?x2625 ?x608) 1) (ite $x835 (+ (- ?x2625 ?x947) 1) ?x2917))))
 (let ((?x684 (ite $x1016 244 243)))
 (let (($x864 (>= ?x2625 ?x684)))
 (let ((?x859 (ite $x1016 274 273)))
 (let (($x906 (>= ?x2625 ?x859)))
 (let ((?x1181 (ite $x906 (+ (- ?x2625 ?x859) 1) (ite $x864 (+ (- ?x2625 ?x684) 1) ?x630))))
 (let ((?x633 (ite $x1016 305 304)))
 (let (($x775 (>= ?x2625 ?x633)))
 (let ((?x1049 (ite $x1016 335 334)))
 (let (($x1085 (>= ?x2625 ?x1049)))
 (let ((?x3494 (ite $x1085 (+ (- ?x2625 ?x1049) 1) (ite $x775 (+ (- ?x2625 ?x633) 1) ?x1181))))
 (let ((?x1118 (+ (* 1 12) 0)))
 (let ((?x679 (ite $x604 5 (ite $x472 4 (ite $x1871 3 (ite $x1533 2 1))))))
 (let ((?x718 (ite $x864 9 (ite $x438 8 (ite $x835 7 (ite $x555 6 ?x679))))))
 (let ((?x696 (ite $x1085 12 (ite $x775 11 (ite $x906 10 ?x718)))))
 (let ((?x506 (+ ?x696 ?x1118)))
 (let ((?x760 (- ?x506 1)))
 (let ((?x702 (+ (mod ?x760 12) 1)))
 (let ((?x1102 (ite (or (= ?x702 4) (= ?x702 6) (= ?x702 9) (= ?x702 11)) 30 31)))
 (let (($x964 (and (= (mod (+ ?x814 (+ 0 (div ?x760 12))) 4) 0) (and (distinct (mod (+ ?x814 (+ 0 (div ?x760 12))) 100) 0) true))))
 (let (($x3529 (or $x964 (= (mod (+ ?x814 (+ 0 (div ?x760 12))) 400) 0))))
 (let ((?x1635 (ite (= ?x702 2) (ite $x3529 29 28) ?x1102)))
 (let ((?x2387 (ite (> 1 ?x3494) 1 (ite (> ?x3494 ?x1635) ?x1635 ?x3494))))
 (let ((?x431 (ite (> 1 ?x2387) 1 (ite (> ?x2387 ?x1635) ?x1635 ?x2387))))
 (let ((?x606 (ite (= 2 ?x702) (ite $x3529 31 31) (ite (= 1 ?x702) (ite $x3529 0 0) 0))))
 (let ((?x974 (ite (= 4 ?x702) (ite $x3529 91 90) (ite (= 3 ?x702) (ite $x3529 60 59) ?x606))))
 (let ((?x1725 (ite (= 6 ?x702) (ite $x3529 152 151) (ite (= 5 ?x702) (ite $x3529 121 120) ?x974))))
 (let ((?x747 (ite (= 8 ?x702) (ite $x3529 213 212) (ite (= 7 ?x702) (ite $x3529 182 181) ?x1725))))
 (let ((?x3022 (ite (= 10 ?x702) (ite $x3529 274 273) (ite (= 9 ?x702) (ite $x3529 244 243) ?x747))))
 (let ((?x3134 (ite (= 12 ?x702) (ite $x3529 335 334) (ite (= 11 ?x702) (ite $x3529 305 304) ?x3022))))
 (let ((?x516 (+ (* 365 (- (+ ?x814 (+ 0 (div ?x760 12))) 1)) (div (- (+ ?x814 (+ 0 (div ?x760 12))) 1) 4))))
 (let ((?x629 (+ (- ?x516 (div (- (+ ?x814 (+ 0 (div ?x760 12))) 1) 100)) (div (- (+ ?x814 (+ 0 (div ?x760 12))) 1) 400))))
 (let ((?x2954 (+ (+ (- (+ (+ ?x629 ?x3134) (- ?x431 1)) 730179) 0) 730179)))
 (let ((?x1026 (mod ?x2954 146097)))
 (let ((?x929 (div ?x1026 36524)))
 (let ((?x1717 (ite (<= 4 ?x929) 3 ?x929)))
 (let ((?x1147 (- ?x1026 (* ?x1717 36524))))
 (let ((?x415 (mod ?x1147 1461)))
 (let ((?x1083 (div ?x415 365)))
 (let ((?x2490 (ite (<= 4 ?x1083) 3 ?x1083)))
 (let ((?x3026 (+ (+ (* (div ?x2954 146097) 400) (* ?x1717 100)) (* (div ?x1147 1461) 4))))
 (let ((?x491 (+ (+ ?x3026 ?x2490) 1)))
 (let (($x954 (or (and (= (mod ?x491 4) 0) (and (distinct (mod ?x491 100) 0) true)) (= (mod ?x491 400) 0))))
 (let ((?x2125 (- ?x415 (* ?x2490 365))))
 (let ((?x489 (ite $x954 31 31)))
 (let (($x888 (>= ?x2125 ?x489)))
 (let ((?x1988 (ite $x888 (+ (- ?x2125 ?x489) 1) (+ (- ?x2125 (ite $x954 0 0)) 1))))
 (let ((?x1019 (ite $x954 60 59)))
 (let (($x1103 (>= ?x2125 ?x1019)))
 (let ((?x3057 (ite $x954 91 90)))
 (let (($x796 (>= ?x2125 ?x3057)))
 (let ((?x3102 (ite $x796 (+ (- ?x2125 ?x3057) 1) (ite $x1103 (+ (- ?x2125 ?x1019) 1) ?x1988))))
 (let ((?x2076 (ite $x954 121 120)))
 (let (($x2891 (>= ?x2125 ?x2076)))
 (let ((?x643 (ite $x954 152 151)))
 (let (($x825 (>= ?x2125 ?x643)))
 (let ((?x1072 (ite $x825 (+ (- ?x2125 ?x643) 1) (ite $x2891 (+ (- ?x2125 ?x2076) 1) ?x3102))))
 (let ((?x2987 (ite $x954 182 181)))
 (let (($x1003 (>= ?x2125 ?x2987)))
 (let ((?x697 (ite $x954 213 212)))
 (let (($x631 (>= ?x2125 ?x697)))
 (let ((?x2974 (ite $x631 (+ (- ?x2125 ?x697) 1) (ite $x1003 (+ (- ?x2125 ?x2987) 1) ?x1072))))
 (let ((?x806 (ite $x954 244 243)))
 (let (($x1293 (>= ?x2125 ?x806)))
 (let ((?x3071 (ite $x954 274 273)))
 (let (($x951 (>= ?x2125 ?x3071)))
 (let ((?x2723 (ite $x951 (+ (- ?x2125 ?x3071) 1) (ite $x1293 (+ (- ?x2125 ?x806) 1) ?x2974))))
 (let ((?x1067 (ite $x954 305 304)))
 (let (($x1274 (>= ?x2125 ?x1067)))
 (let ((?x706 (ite $x954 335 334)))
 (let (($x3904 (>= ?x2125 ?x706)))
 (let ((?x861 (ite $x3904 (+ (- ?x2125 ?x706) 1) (ite $x1274 (+ (- ?x2125 ?x1067) 1) ?x2723))))
 (let (($x573 (= 0 0)))
 (let ((?x549 (ite $x573 ?x431 ?x861)))
 (= x_plus_day ?x549)))))))))))))))))))))))))))))))))))))))))))))))))))))))))))))))))))))))))))))))))))))))))))))))))))))))))
(assert
 (= x_plus_epoch 7669))
(check-sat)
